15 40
25
7 12 0 0
7 7 0 12
1 7 2 19
1 5 6 19
2 3 9 16
2 6 4 34
2 7 7 17
2 5 7 0
1 3 11 16
1 6 3 34
6 12 9 19
6 9 9 31
2 12 0 23
2 7 7 5
3 10 12 0
1 4 2 31
1 5 2 26
3 16 6 24
3 5 3 29
2 4 0 19
2 5 7 12
3 10 3 19
3 9 12 10
3 16 9 0
3 5 0 35
